/*********************************************
 * Auto-generated OPL Data 
 * Author: rehearsal-data-generator (Mahé T.)
 * Creation Date: 2019-02-10 18:52
*********************************************/
nplayers = 10;
npieces = 8;
rehearsal = [
	[0, 1, 0, 0, 1, 0, 1, 1]
	[0, 1, 0, 1, 1, 0, 0, 1]
	[1, 1, 0, 0, 0, 1, 1, 0]
	[1, 1, 0, 1, 0, 0, 1, 0]
	[0, 0, 1, 0, 1, 0, 0, 0]
	[1, 1, 0, 1, 1, 1, 1, 0]
	[1, 1, 1, 0, 0, 0, 1, 1]
	[1, 0, 1, 1, 0, 0, 0, 1]
	];
durations = [4, 1, 2, 3, 1, 5, 2, 2];

